(set-logic ALL)
(declare-fun var0 () String)
(assert (str.in_re var0 (re.++ (re.+ (re.union (str.to_re "0") (str.to_re "1"))) (re.++ (re.* (re.union (str.to_re "22") (str.to_re "3"))) (re.++ (re.+ (re.union (str.to_re "444") (str.to_re "555"))) (re.++ (re.+ (re.union (str.to_re "66") (str.to_re "77"))) (re.++ (re.union (re.+ (str.to_re "88")) (re.+ (str.to_re "99"))) (re.++ (re.+ (re.+ (str.to_re "a"))) (re.++ (re.* (re.* (str.to_re "bb"))) (re.++ (re.+ (re.union (str.to_re "cc") (str.to_re "ddd"))) (re.++ (re.+ (re.union (str.to_re "e") (str.to_re "f"))) (re.++ (re.union (re.+ (str.to_re "g")) (re.+ (str.to_re "hhh"))) (re.++ (re.union (re.+ (str.to_re "ii")) (re.+ (str.to_re "jjj"))) (re.++ (re.union (re.* (str.to_re "k")) (re.* (str.to_re "l"))) (re.++ (re.union (re.union (str.to_re "m") (str.to_re "n")) (re.union (str.to_re "o") (str.to_re "p"))) (re.++ (re.* (re.+ (str.to_re "qq"))) (re.++ (re.+ (re.union (str.to_re "r") (str.to_re "ss"))) (re.++ (re.+ (re.* (str.to_re "t"))) (re.++ (re.union (re.union (str.to_re "u") (str.to_re "v")) (re.union (str.to_re "www") (str.to_re "xxx"))) (re.++ (re.+ (re.union (str.to_re "y") (str.to_re "zzz"))) (re.++ (re.* (re.* (str.to_re "AAA"))) (re.++ (re.union (re.* (str.to_re "BB")) (re.* (str.to_re "CC"))) (re.++ (re.+ (re.union (str.to_re "D") (str.to_re "EEE"))) (re.++ (re.* (re.* (str.to_re "FFF"))) (re.++ (re.+ (re.+ (str.to_re "GGG"))) (re.++ (re.+ (re.* (str.to_re "HH"))) (re.++ (re.+ (re.+ (str.to_re "I"))) (re.++ (re.union (re.union (str.to_re "J") (str.to_re "K")) (re.union (str.to_re "L") (str.to_re "MM"))) (re.++ (re.* (re.+ (str.to_re "N"))) (re.++ (re.+ (re.* (str.to_re "OO"))) (re.++ (re.* (re.+ (str.to_re "P"))) (re.++ (re.union (re.union (str.to_re "QQQ") (str.to_re "R")) (re.union (str.to_re "SSS") (str.to_re "T"))) (re.++ (re.+ (re.+ (str.to_re "UU"))) (re.++ (re.+ (re.union (str.to_re "VV") (str.to_re "W"))) (re.++ (re.* (re.* (str.to_re "XX"))) (re.++ (re.union (re.+ (str.to_re "Y")) (re.+ (str.to_re "Z"))) (re.++ (re.+ (re.* (str.to_re "!!"))) (re.++ (re.* (re.+ (str.to_re """"))) (re.++ (re.* (re.+ (str.to_re "###"))) (re.++ (re.+ (re.union (str.to_re "$") (str.to_re "%"))) (re.++ (re.+ (re.* (str.to_re "&&"))) (re.++ (re.union (re.+ (str.to_re "'")) (re.+ (str.to_re "((("))) (re.++ (re.+ (re.+ (str.to_re ")))"))) (re.++ (re.* (re.* (str.to_re "**"))) (re.++ (re.+ (re.+ (str.to_re "++"))) (re.++ (re.* (re.* (str.to_re ",,"))) (re.++ (re.union (re.* (str.to_re "--")) (re.* (str.to_re ".."))) (re.++ (re.* (re.+ (str.to_re "//"))) (re.++ (re.* (re.* (str.to_re "::"))) (re.++ (re.union (re.+ (str.to_re ";;;")) (re.+ (str.to_re "<"))) (re.++ (re.union (re.union (str.to_re "==") (str.to_re ">")) (re.union (str.to_re "??") (str.to_re "@"))) (re.++ (re.+ (re.union (str.to_re "[[[") (str.to_re "\\"))) (re.++ (re.+ (re.union (str.to_re "]]") (str.to_re "^^^"))) (re.++ (re.union (re.* (str.to_re "___")) (re.* (str.to_re "```"))) (re.++ (re.+ (re.* (str.to_re "{"))) (re.++ (re.+ (re.* (str.to_re "|||"))) (re.++ (re.+ (re.union (str.to_re "}}") (str.to_re "~~"))) (re.++ (re.union (re.+ (str.to_re "00")) (re.+ (str.to_re "111"))) (re.++ (re.* (re.* (str.to_re "2"))) (re.++ (re.* (re.union (str.to_re "3") (str.to_re "4"))) (re.++ (re.+ (re.+ (str.to_re "555"))) (re.++ (re.+ (re.union (str.to_re "66") (str.to_re "777"))) (re.++ (re.* (re.* (str.to_re "888"))) (re.++ (re.* (re.+ (str.to_re "9"))) (re.++ (re.union (re.union (str.to_re "a") (str.to_re "b")) (re.union (str.to_re "ccc") (str.to_re "d"))) (re.++ (re.union (re.* (str.to_re "ee")) (re.* (str.to_re "ff"))) (re.++ (re.* (re.union (str.to_re "gg") (str.to_re "h"))) (re.++ (re.union (re.union (str.to_re "iii") (str.to_re "j")) (re.union (str.to_re "kk") (str.to_re "l"))) (re.++ (re.+ (re.union (str.to_re "mm") (str.to_re "n"))) (re.++ (re.union (re.+ (str.to_re "oo")) (re.+ (str.to_re "pp"))) (re.++ (re.+ (re.* (str.to_re "qq"))) (re.++ (re.union (re.union (str.to_re "r") (str.to_re "ss")) (re.union (str.to_re "ttt") (str.to_re "uu"))) (re.++ (re.* (re.union (str.to_re "vvv") (str.to_re "ww"))) (re.++ (re.+ (re.+ (str.to_re "xxx"))) (re.++ (re.* (re.+ (str.to_re "yy"))) (re.++ (re.+ (re.* (str.to_re "zzz"))) (re.++ (re.* (re.union (str.to_re "AA") (str.to_re "B"))) (re.++ (re.union (re.+ (str.to_re "CCC")) (re.+ (str.to_re "DD"))) (re.++ (re.+ (re.* (str.to_re "EE"))) (re.++ (re.union (re.union (str.to_re "FF") (str.to_re "GG")) (re.union (str.to_re "HHH") (str.to_re "III"))) (re.++ (re.+ (re.+ (str.to_re "J"))) (re.++ (re.+ (re.union (str.to_re "KKK") (str.to_re "LLL"))) (re.++ (re.* (re.* (str.to_re "MMM"))) (re.++ (re.union (re.union (str.to_re "NNN") (str.to_re "OO")) (re.union (str.to_re "PPP") (str.to_re "QQ"))) (re.++ (re.* (re.+ (str.to_re "RRR"))) (re.++ (re.+ (re.* (str.to_re "SS"))) (re.++ (re.+ (re.union (str.to_re "TT") (str.to_re "UU"))) (re.++ (re.+ (re.* (str.to_re "VV"))) (re.++ (re.+ (re.union (str.to_re "W") (str.to_re "X"))) (re.++ (re.* (re.* (str.to_re "Y"))) (re.++ (re.* (re.* (str.to_re "ZZ"))) (re.++ (re.union (re.union (str.to_re "!") (str.to_re """""")) (re.union (str.to_re "##") (str.to_re "$"))) (re.++ (re.* (re.+ (str.to_re "%"))) (re.++ (re.+ (re.* (str.to_re "&"))) (re.++ (re.* (re.+ (str.to_re "''"))) (re.++ (re.union (re.* (str.to_re "(((")) (re.* (str.to_re ")"))) (re.++ (re.* (re.union (str.to_re "*") (str.to_re "+++"))) (re.++ (re.* (re.* (str.to_re ",,,"))) (re.++ (re.union (re.* (str.to_re "--")) (re.* (str.to_re "."))) (re.++ (re.+ (re.* (str.to_re "//"))) (re.++ (re.* (re.* (str.to_re ":::"))) (re.++ (re.union (re.* (str.to_re ";;;")) (re.* (str.to_re "<"))) (re.++ (re.+ (re.+ (str.to_re "=="))) (re.++ (re.* (re.union (str.to_re ">") (str.to_re "??"))) (re.++ (re.+ (re.* (str.to_re "@"))) (re.++ (re.union (re.union (str.to_re "[[") (str.to_re "\\\\\\")) (re.union (str.to_re "]") (str.to_re "^^^"))) (re.++ (re.* (re.+ (str.to_re "___"))) (re.++ (re.union (re.+ (str.to_re "``")) (re.+ (str.to_re "{"))) (re.++ (re.* (re.+ (str.to_re "|"))) (re.++ (re.+ (re.union (str.to_re "}") (str.to_re "~"))) (re.++ (re.+ (re.+ (str.to_re "0"))) (re.++ (re.+ (re.+ (str.to_re "111"))) (re.++ (re.* (re.* (str.to_re "222"))) (re.++ (re.+ (re.+ (str.to_re "3"))) (re.++ (re.+ (re.+ (str.to_re "44"))) (re.++ (re.* (re.union (str.to_re "5") (str.to_re "66"))) (re.++ (re.union (re.+ (str.to_re "77")) (re.+ (str.to_re "888"))) (re.++ (re.* (re.+ (str.to_re "99"))) (re.++ (re.union (re.* (str.to_re "a")) (re.* (str.to_re "bb"))) (re.++ (re.* (re.+ (str.to_re "ccc"))) (re.++ (re.union (re.* (str.to_re "d")) (re.* (str.to_re "e"))) (re.++ (re.union (re.union (str.to_re "f") (str.to_re "ggg")) (re.union (str.to_re "hhh") (str.to_re "iii"))) (re.++ (re.+ (re.+ (str.to_re "j"))) (re.++ (re.+ (re.+ (str.to_re "kk"))) (re.++ (re.* (re.union (str.to_re "l") (str.to_re "mm"))) (re.++ (re.+ (re.+ (str.to_re "n"))) (re.++ (re.+ (re.+ (str.to_re "o"))) (re.++ (re.union (re.union (str.to_re "pp") (str.to_re "q")) (re.union (str.to_re "r") (str.to_re "sss"))) (re.++ (re.union (re.union (str.to_re "ttt") (str.to_re "u")) (re.union (str.to_re "v") (str.to_re "www"))) (re.++ (re.* (re.union (str.to_re "xxx") (str.to_re "y"))) (re.++ (re.+ (re.union (str.to_re "z") (str.to_re "AAA"))) (re.++ (re.* (re.union (str.to_re "BB") (str.to_re "CC"))) (re.++ (re.* (re.+ (str.to_re "D"))) (re.++ (re.+ (re.+ (str.to_re "EE"))) (re.++ (re.* (re.union (str.to_re "F") (str.to_re "GG"))) (re.++ (re.union (re.* (str.to_re "HH")) (re.* (str.to_re "I"))) (re.++ (re.+ (re.* (str.to_re "JJ"))) (re.++ (re.union (re.+ (str.to_re "KKK")) (re.+ (str.to_re "LLL"))) (re.++ (re.* (re.union (str.to_re "M") (str.to_re "N"))) (re.++ (re.* (re.+ (str.to_re "O"))) (re.++ (re.+ (re.+ (str.to_re "P"))) (re.++ (re.* (re.union (str.to_re "QQQ") (str.to_re "R"))) (re.++ (re.+ (re.+ (str.to_re "S"))) (re.++ (re.union (re.+ (str.to_re "T")) (re.+ (str.to_re "UUU"))) (re.++ (re.* (re.+ (str.to_re "VVV"))) (re.++ (re.+ (re.+ (str.to_re "WW"))) (re.++ (re.+ (re.union (str.to_re "XXX") (str.to_re "YYY"))) (re.++ (re.+ (re.union (str.to_re "ZZZ") (str.to_re "!!"))) (re.++ (re.union (re.* (str.to_re """""""")) (re.* (str.to_re "#"))) (re.++ (re.+ (re.* (str.to_re "$$$"))) (re.++ (re.* (re.union (str.to_re "%%") (str.to_re "&&&"))) (re.++ (re.+ (re.+ (str.to_re "'"))) (re.++ (re.+ (re.union (str.to_re "(((") (str.to_re ")"))) (re.++ (re.+ (re.* (str.to_re "***"))) (re.++ (re.union (re.* (str.to_re "+")) (re.* (str.to_re ",,"))) (re.++ (re.+ (re.+ (str.to_re "-"))) (re.++ (re.union (re.+ (str.to_re "..")) (re.+ (str.to_re "///"))) (re.++ (re.union (re.* (str.to_re ":")) (re.* (str.to_re ";;"))) (re.++ (re.+ (re.union (str.to_re "<") (str.to_re "=="))) (re.++ (re.* (re.union (str.to_re ">>") (str.to_re "?"))) (re.++ (re.union (re.union (str.to_re "@@") (str.to_re "[[[")) (re.union (str.to_re "\\\\") (str.to_re "]]]"))) (re.++ (re.union (re.union (str.to_re "^^") (str.to_re "___")) (re.union (str.to_re "`") (str.to_re "{{"))) (re.++ (re.union (re.+ (str.to_re "|||")) (re.+ (str.to_re "}}}"))) (re.++ (re.* (re.* (str.to_re "~~~"))) (re.++ (re.* (re.* (str.to_re "000"))) (re.++ (re.+ (re.* (str.to_re "11"))) (re.++ (re.* (re.* (str.to_re "2"))) (re.++ (re.union (re.* (str.to_re "3")) (re.* (str.to_re "4"))) (re.++ (re.union (re.union (str.to_re "5") (str.to_re "666")) (re.union (str.to_re "77") (str.to_re "888"))) (re.++ (re.+ (re.* (str.to_re "99"))) (re.++ (re.union (re.* (str.to_re "aaa")) (re.* (str.to_re "b"))) (re.++ (re.union (re.* (str.to_re "ccc")) (re.* (str.to_re "dd"))) (re.++ (re.* (re.union (str.to_re "e") (str.to_re "f"))) (re.++ (re.* (re.+ (str.to_re "ggg"))) (re.++ (re.* (re.+ (str.to_re "h"))) (re.++ (re.+ (re.* (str.to_re "iii"))) (re.++ (re.* (re.+ (str.to_re "jjj"))) (re.union (re.* (str.to_re "kkk")) (re.* (str.to_re "ll"))))))))))))))))))))))))))))))))))))))))))))))))))))))))))))))))))))))))))))))))))))))))))))))))))))))))))))))))))))))))))))))))))))))))))))))))))))))))))))))))))))))))))))))))))))
(check-sat)